WARNING: for repeatability, setting FPU to use double precision
============================[ Problem Statistics ]=============================
|                                                                             |
|  Number of variables:            50                                         |
|  Number of clauses:             218                                         |
|  Parse time:                   0.00 s                                       |
|                                                                             |
============================[ Search Statistics ]==============================
| Conflicts |          ORIGINAL         |          LEARNT          | Progress |
|           |    Vars  Clauses Literals |    Limit  Clauses Lit/Cl |          |
===============================================================================
===============================================================================
restarts              : 1
conflicts             : 44             (31030 /sec)
decisions             : 50             (0.00 % random) (35261 /sec)
propagations          : 535            (377292 /sec)
conflict literals     : 139            (13.66 % deleted)
Memory used           : 20.00 MB
CPU time              : 0.001418 s

UNSATISFIABLE
